0,44,68,21,31,170,0
0,158,3,86,131,116,0
0,196,30,2,52,24,0
0,63,92,48,185,113,165,69,126,78,0
0,120,26,123,139,187,162,171,17,200,0
0,157,93,199,135,109,147,186,144,43,129,0
0,161,115,16,95,58,127,177,102,189,77,0
0,51,176,124,169,146,101,60,90,10,110,0
0,106,85,191,94,12,19,178,23,22,198,0
0,67,36,5,133,27,49,160,180,80,91,75,0
0,4,15,184,153,166,193,151,33,167,179,190,0
0,73,145,35,99,34,62,118,152,88,111,119,0
0,87,20,194,32,175,134,1,103,154,97,105,0
0,168,122,8,76,181,42,53,192,121,112,59,0
0,140,57,13,163,98,6,159,47,82,74,37,0
0,155,72,56,164,54,141,89,125,39,29,96,65,0
0,46,188,114,173,104,100,136,142,128,183,40,197,0
0,55,7,41,150,137,66,50,11,182,9,70,107,0
0,149,14,18,143,81,38,84,138,174,83,45,108,0
0,132,71,28,64,195,25,79,156,172,148,130,117,61,0
